Cost:    1657.00
Running time:       0.00

Solution: 
0      6      5     17     14     13      2      4     12      3      9      1     10     11      7      8      0      
0     27     28     26     25     24     29     20     19     36     18     16     15     41     22     23     21      0      
0     37     44     38     43     42     31     32     30     35     34     33     55     39     40      0      
0     53     57     56     54     50     51     63     48     47     49     46     45     60     52      0      
0     69     62     64     66     65     68     67     61     59     58      0      
0     73     74     75     72     80     76     77     79     78     81     71     70     82     83     84      0      
0     94     87     92     91     86     85     93     96     89     88     90      0      
0     97    100     98     99     95      0      
